
(set-logic HORN)
(declare-datatypes ((Bool_439 0)) (((false_439) (true_439))))
(declare-fun diseqBool_220 (Bool_439 Bool_439) Bool)
(declare-fun isfalse_220 (Bool_439) Bool)
(declare-fun istrue_220 (Bool_439) Bool)
(assert (isfalse_220 false_439))
(assert (istrue_220 true_439))
(assert (diseqBool_220 false_439 true_439))
(assert (diseqBool_220 true_439 false_439))
(declare-fun and_445 (Bool_439 Bool_439 Bool_439) Bool)
(declare-fun or_460 (Bool_439 Bool_439 Bool_439) Bool)
(declare-fun hence_439 (Bool_439 Bool_439 Bool_439) Bool)
(declare-fun not_444 (Bool_439 Bool_439) Bool)
(assert (and_445 false_439 false_439 false_439))
(assert (and_445 false_439 true_439 false_439))
(assert (and_445 false_439 false_439 true_439))
(assert (and_445 true_439 true_439 true_439))
(assert (or_460 false_439 false_439 false_439))
(assert (or_460 true_439 true_439 false_439))
(assert (or_460 true_439 false_439 true_439))
(assert (or_460 true_439 true_439 true_439))
(assert (hence_439 true_439 false_439 false_439))
(assert (hence_439 false_439 true_439 false_439))
(assert (hence_439 true_439 false_439 true_439))
(assert (hence_439 true_439 true_439 true_439))
(assert (not_444 true_439 false_439))
(assert (not_444 false_439 true_439))
(declare-datatypes ((list_396 0)) (((nil_455) (cons_390 (head_780 Bool_439) (tail_786 list_396)))))
(declare-fun diseqlist_390 (list_396 list_396) Bool)
(declare-fun head_783 (Bool_439 list_396) Bool)
(declare-fun tail_789 (list_396 list_396) Bool)
(declare-fun isnil_455 (list_396) Bool)
(declare-fun iscons_390 (list_396) Bool)
(assert (forall ((x_126068 Bool_439) (x_126069 list_396))
	(head_783 x_126068 (cons_390 x_126068 x_126069))))
(assert (forall ((x_126068 Bool_439) (x_126069 list_396))
	(tail_789 x_126069 (cons_390 x_126068 x_126069))))
(assert (isnil_455 nil_455))
(assert (forall ((x_126071 Bool_439) (x_126072 list_396))
	(iscons_390 (cons_390 x_126071 x_126072))))
(assert (forall ((x_126073 Bool_439) (x_126074 list_396))
	(diseqlist_390 nil_455 (cons_390 x_126073 x_126074))))
(assert (forall ((x_126075 Bool_439) (x_126076 list_396))
	(diseqlist_390 (cons_390 x_126075 x_126076) nil_455)))
(assert (forall ((x_126077 Bool_439) (x_126078 list_396) (x_126079 Bool_439) (x_126080 list_396))
	(=> (diseqBool_220 x_126077 x_126079) (diseqlist_390 (cons_390 x_126077 x_126078) (cons_390 x_126079 x_126080)))))
(assert (forall ((x_126077 Bool_439) (x_126078 list_396) (x_126079 Bool_439) (x_126080 list_396))
	(=> (diseqlist_390 x_126078 x_126080) (diseqlist_390 (cons_390 x_126077 x_126078) (cons_390 x_126079 x_126080)))))
(declare-datatypes ((T_39 0)) (((A_122) (B_138) (C_77))))
(declare-fun diseqT_35 (T_39 T_39) Bool)
(declare-fun isA_42 (T_39) Bool)
(declare-fun isB_42 (T_39) Bool)
(declare-fun isC_43 (T_39) Bool)
(assert (isA_42 A_122))
(assert (isB_42 B_138))
(assert (isC_43 C_77))
(assert (diseqT_35 A_122 B_138))
(assert (diseqT_35 A_122 C_77))
(assert (diseqT_35 B_138 A_122))
(assert (diseqT_35 C_77 A_122))
(assert (diseqT_35 B_138 C_77))
(assert (diseqT_35 C_77 B_138))
(declare-datatypes ((list_397 0)) (((nil_456) (cons_391 (head_781 T_39) (tail_787 list_397)))))
(declare-fun diseqlist_391 (list_397 list_397) Bool)
(declare-fun head_784 (T_39 list_397) Bool)
(declare-fun tail_790 (list_397 list_397) Bool)
(declare-fun isnil_456 (list_397) Bool)
(declare-fun iscons_391 (list_397) Bool)
(assert (forall ((x_126085 T_39) (x_126086 list_397))
	(head_784 x_126085 (cons_391 x_126085 x_126086))))
(assert (forall ((x_126085 T_39) (x_126086 list_397))
	(tail_790 x_126086 (cons_391 x_126085 x_126086))))
(assert (isnil_456 nil_456))
(assert (forall ((x_126088 T_39) (x_126089 list_397))
	(iscons_391 (cons_391 x_126088 x_126089))))
(assert (forall ((x_126090 T_39) (x_126091 list_397))
	(diseqlist_391 nil_456 (cons_391 x_126090 x_126091))))
(assert (forall ((x_126092 T_39) (x_126093 list_397))
	(diseqlist_391 (cons_391 x_126092 x_126093) nil_456)))
(assert (forall ((x_126094 T_39) (x_126095 list_397) (x_126096 T_39) (x_126097 list_397))
	(=> (diseqT_35 x_126094 x_126096) (diseqlist_391 (cons_391 x_126094 x_126095) (cons_391 x_126096 x_126097)))))
(assert (forall ((x_126094 T_39) (x_126095 list_397) (x_126096 T_39) (x_126097 list_397))
	(=> (diseqlist_391 x_126095 x_126097) (diseqlist_391 (cons_391 x_126094 x_126095) (cons_391 x_126096 x_126097)))))
(declare-datatypes ((pair_204 0)) (((pair_205 (projpair_408 list_397) (projpair_409 list_397)))))
(declare-fun diseqpair_102 (pair_204 pair_204) Bool)
(declare-fun projpair_410 (list_397 pair_204) Bool)
(declare-fun projpair_411 (list_397 pair_204) Bool)
(declare-fun ispair_102 (pair_204) Bool)
(assert (forall ((x_126098 list_397) (x_126099 list_397))
	(projpair_410 x_126098 (pair_205 x_126098 x_126099))))
(assert (forall ((x_126098 list_397) (x_126099 list_397))
	(projpair_411 x_126099 (pair_205 x_126098 x_126099))))
(assert (forall ((x_126101 list_397) (x_126102 list_397))
	(ispair_102 (pair_205 x_126101 x_126102))))
(assert (forall ((x_126103 list_397) (x_126104 list_397) (x_126105 list_397) (x_126106 list_397))
	(=> (diseqlist_391 x_126103 x_126105) (diseqpair_102 (pair_205 x_126103 x_126104) (pair_205 x_126105 x_126106)))))
(assert (forall ((x_126103 list_397) (x_126104 list_397) (x_126105 list_397) (x_126106 list_397))
	(=> (diseqlist_391 x_126104 x_126106) (diseqpair_102 (pair_205 x_126103 x_126104) (pair_205 x_126105 x_126106)))))
(declare-datatypes ((list_398 0)) (((nil_457) (cons_392 (head_782 pair_204) (tail_788 list_398)))))
(declare-fun diseqlist_392 (list_398 list_398) Bool)
(declare-fun head_785 (pair_204 list_398) Bool)
(declare-fun tail_791 (list_398 list_398) Bool)
(declare-fun isnil_457 (list_398) Bool)
(declare-fun iscons_392 (list_398) Bool)
(assert (forall ((x_126108 pair_204) (x_126109 list_398))
	(head_785 x_126108 (cons_392 x_126108 x_126109))))
(assert (forall ((x_126108 pair_204) (x_126109 list_398))
	(tail_791 x_126109 (cons_392 x_126108 x_126109))))
(assert (isnil_457 nil_457))
(assert (forall ((x_126111 pair_204) (x_126112 list_398))
	(iscons_392 (cons_392 x_126111 x_126112))))
(assert (forall ((x_126113 pair_204) (x_126114 list_398))
	(diseqlist_392 nil_457 (cons_392 x_126113 x_126114))))
(assert (forall ((x_126115 pair_204) (x_126116 list_398))
	(diseqlist_392 (cons_392 x_126115 x_126116) nil_457)))
(assert (forall ((x_126117 pair_204) (x_126118 list_398) (x_126119 pair_204) (x_126120 list_398))
	(=> (diseqpair_102 x_126117 x_126119) (diseqlist_392 (cons_392 x_126117 x_126118) (cons_392 x_126119 x_126120)))))
(assert (forall ((x_126117 pair_204) (x_126118 list_398) (x_126119 pair_204) (x_126120 list_398))
	(=> (diseqlist_392 x_126118 x_126120) (diseqlist_392 (cons_392 x_126117 x_126118) (cons_392 x_126119 x_126120)))))
(declare-datatypes ((R_656 0)) (((Nil_458) (Eps_98) (Atom_49 (projAtom_98 T_39)) (x_125972 (proj_356 R_656) (proj_357 R_656)) (x_125973 (proj_358 R_656) (proj_359 R_656)) (Star_49 (projStar_98 R_656)))))
(declare-fun diseqR_49 (R_656 R_656) Bool)
(declare-fun projAtom_99 (T_39 R_656) Bool)
(declare-fun proj_360 (R_656 R_656) Bool)
(declare-fun proj_361 (R_656 R_656) Bool)
(declare-fun proj_362 (R_656 R_656) Bool)
(declare-fun proj_363 (R_656 R_656) Bool)
(declare-fun projStar_99 (R_656 R_656) Bool)
(declare-fun isNil_458 (R_656) Bool)
(declare-fun isEps_49 (R_656) Bool)
(declare-fun isAtom_49 (R_656) Bool)
(declare-fun isx_104 (R_656) Bool)
(declare-fun isx_105 (R_656) Bool)
(declare-fun isStar_49 (R_656) Bool)
(assert (forall ((x_126123 T_39))
	(projAtom_99 x_126123 (Atom_49 x_126123))))
(assert (forall ((x_126125 R_656) (x_126126 R_656))
	(proj_360 x_126125 (x_125972 x_126125 x_126126))))
(assert (forall ((x_126125 R_656) (x_126126 R_656))
	(proj_361 x_126126 (x_125972 x_126125 x_126126))))
(assert (forall ((x_126128 R_656) (x_126129 R_656))
	(proj_362 x_126128 (x_125973 x_126128 x_126129))))
(assert (forall ((x_126128 R_656) (x_126129 R_656))
	(proj_363 x_126129 (x_125973 x_126128 x_126129))))
(assert (forall ((x_126131 R_656))
	(projStar_99 x_126131 (Star_49 x_126131))))
(assert (isNil_458 Nil_458))
(assert (isEps_49 Eps_98))
(assert (forall ((x_126133 T_39))
	(isAtom_49 (Atom_49 x_126133))))
(assert (forall ((x_126134 R_656) (x_126135 R_656))
	(isx_104 (x_125972 x_126134 x_126135))))
(assert (forall ((x_126136 R_656) (x_126137 R_656))
	(isx_105 (x_125973 x_126136 x_126137))))
(assert (forall ((x_126138 R_656))
	(isStar_49 (Star_49 x_126138))))
(assert (diseqR_49 Nil_458 Eps_98))
(assert (forall ((x_126139 T_39))
	(diseqR_49 Nil_458 (Atom_49 x_126139))))
(assert (forall ((x_126140 R_656) (x_126141 R_656))
	(diseqR_49 Nil_458 (x_125972 x_126140 x_126141))))
(assert (forall ((x_126142 R_656) (x_126143 R_656))
	(diseqR_49 Nil_458 (x_125973 x_126142 x_126143))))
(assert (forall ((x_126144 R_656))
	(diseqR_49 Nil_458 (Star_49 x_126144))))
(assert (diseqR_49 Eps_98 Nil_458))
(assert (forall ((x_126145 T_39))
	(diseqR_49 (Atom_49 x_126145) Nil_458)))
(assert (forall ((x_126146 R_656) (x_126147 R_656))
	(diseqR_49 (x_125972 x_126146 x_126147) Nil_458)))
(assert (forall ((x_126148 R_656) (x_126149 R_656))
	(diseqR_49 (x_125973 x_126148 x_126149) Nil_458)))
(assert (forall ((x_126150 R_656))
	(diseqR_49 (Star_49 x_126150) Nil_458)))
(assert (forall ((x_126151 T_39))
	(diseqR_49 Eps_98 (Atom_49 x_126151))))
(assert (forall ((x_126152 R_656) (x_126153 R_656))
	(diseqR_49 Eps_98 (x_125972 x_126152 x_126153))))
(assert (forall ((x_126154 R_656) (x_126155 R_656))
	(diseqR_49 Eps_98 (x_125973 x_126154 x_126155))))
(assert (forall ((x_126156 R_656))
	(diseqR_49 Eps_98 (Star_49 x_126156))))
(assert (forall ((x_126157 T_39))
	(diseqR_49 (Atom_49 x_126157) Eps_98)))
(assert (forall ((x_126158 R_656) (x_126159 R_656))
	(diseqR_49 (x_125972 x_126158 x_126159) Eps_98)))
(assert (forall ((x_126160 R_656) (x_126161 R_656))
	(diseqR_49 (x_125973 x_126160 x_126161) Eps_98)))
(assert (forall ((x_126162 R_656))
	(diseqR_49 (Star_49 x_126162) Eps_98)))
(assert (forall ((x_126163 T_39) (x_126164 R_656) (x_126165 R_656))
	(diseqR_49 (Atom_49 x_126163) (x_125972 x_126164 x_126165))))
(assert (forall ((x_126166 T_39) (x_126167 R_656) (x_126168 R_656))
	(diseqR_49 (Atom_49 x_126166) (x_125973 x_126167 x_126168))))
(assert (forall ((x_126169 T_39) (x_126170 R_656))
	(diseqR_49 (Atom_49 x_126169) (Star_49 x_126170))))
(assert (forall ((x_126171 R_656) (x_126172 R_656) (x_126173 T_39))
	(diseqR_49 (x_125972 x_126171 x_126172) (Atom_49 x_126173))))
(assert (forall ((x_126174 R_656) (x_126175 R_656) (x_126176 T_39))
	(diseqR_49 (x_125973 x_126174 x_126175) (Atom_49 x_126176))))
(assert (forall ((x_126177 R_656) (x_126178 T_39))
	(diseqR_49 (Star_49 x_126177) (Atom_49 x_126178))))
(assert (forall ((x_126179 R_656) (x_126180 R_656) (x_126181 R_656) (x_126182 R_656))
	(diseqR_49 (x_125972 x_126179 x_126180) (x_125973 x_126181 x_126182))))
(assert (forall ((x_126183 R_656) (x_126184 R_656) (x_126185 R_656))
	(diseqR_49 (x_125972 x_126183 x_126184) (Star_49 x_126185))))
(assert (forall ((x_126186 R_656) (x_126187 R_656) (x_126188 R_656) (x_126189 R_656))
	(diseqR_49 (x_125973 x_126186 x_126187) (x_125972 x_126188 x_126189))))
(assert (forall ((x_126190 R_656) (x_126191 R_656) (x_126192 R_656))
	(diseqR_49 (Star_49 x_126190) (x_125972 x_126191 x_126192))))
(assert (forall ((x_126193 R_656) (x_126194 R_656) (x_126195 R_656))
	(diseqR_49 (x_125973 x_126193 x_126194) (Star_49 x_126195))))
(assert (forall ((x_126196 R_656) (x_126197 R_656) (x_126198 R_656))
	(diseqR_49 (Star_49 x_126196) (x_125973 x_126197 x_126198))))
(assert (forall ((x_126199 T_39) (x_126200 T_39))
	(=> (diseqT_35 x_126199 x_126200) (diseqR_49 (Atom_49 x_126199) (Atom_49 x_126200)))))
(assert (forall ((x_126201 R_656) (x_126202 R_656) (x_126203 R_656) (x_126204 R_656))
	(=> (diseqR_49 x_126201 x_126203) (diseqR_49 (x_125972 x_126201 x_126202) (x_125972 x_126203 x_126204)))))
(assert (forall ((x_126201 R_656) (x_126202 R_656) (x_126203 R_656) (x_126204 R_656))
	(=> (diseqR_49 x_126202 x_126204) (diseqR_49 (x_125972 x_126201 x_126202) (x_125972 x_126203 x_126204)))))
(assert (forall ((x_126205 R_656) (x_126206 R_656) (x_126207 R_656) (x_126208 R_656))
	(=> (diseqR_49 x_126205 x_126207) (diseqR_49 (x_125973 x_126205 x_126206) (x_125973 x_126207 x_126208)))))
(assert (forall ((x_126205 R_656) (x_126206 R_656) (x_126207 R_656) (x_126208 R_656))
	(=> (diseqR_49 x_126206 x_126208) (diseqR_49 (x_125973 x_126205 x_126206) (x_125973 x_126207 x_126208)))))
(assert (forall ((x_126209 R_656) (x_126210 R_656))
	(=> (diseqR_49 x_126209 x_126210) (diseqR_49 (Star_49 x_126209) (Star_49 x_126210)))))
(declare-fun splits_14 (list_398 T_39 list_398) Bool)
(assert (forall ((x_125993 list_398) (bs_23 list_397) (cs_9 list_397) (x_125975 list_398) (x_125974 T_39))
	(=> (splits_14 x_125993 x_125974 x_125975) (splits_14 (cons_392 (pair_205 (cons_391 x_125974 bs_23) cs_9) x_125993) x_125974 (cons_392 (pair_205 bs_23 cs_9) x_125975)))))
(assert (forall ((x_125974 T_39))
	(splits_14 nil_457 x_125974 nil_457)))
(declare-fun splits_15 (list_398 list_397) Bool)
(assert (forall ((x_125996 list_398) (x_125997 list_398) (y_3192 T_39) (xs_890 list_397))
	(=> (and (splits_15 x_125996 xs_890) (splits_14 x_125997 y_3192 x_125996)) (splits_15 (cons_392 (pair_205 nil_456 (cons_391 y_3192 xs_890)) x_125997) (cons_391 y_3192 xs_890)))))
(assert (splits_15 (cons_392 (pair_205 nil_456 nil_456) nil_457) nil_456))
(declare-fun or_459 (Bool_439 list_396) Bool)
(assert (forall ((x_125999 Bool_439) (x_126000 Bool_439) (y_3193 Bool_439) (xs_891 list_396))
	(=> (and (or_459 x_126000 xs_891) (or_460 x_125999 y_3193 x_126000)) (or_459 x_125999 (cons_390 y_3193 xs_891)))))
(assert (or_459 false_439 nil_455))
(declare-fun eps_99 (Bool_439 R_656) Bool)
(assert (forall ((y_3194 R_656))
	(eps_99 true_439 (Star_49 y_3194))))
(assert (forall ((x_126003 Bool_439) (x_126004 Bool_439) (x_126005 Bool_439) (r_657 R_656) (q_373 R_656))
	(=> (and (eps_99 x_126004 r_657) (eps_99 x_126005 q_373) (and_445 x_126003 x_126004 x_126005)) (eps_99 x_126003 (x_125973 r_657 q_373)))))
(assert (forall ((x_126006 Bool_439) (x_126007 Bool_439) (x_126008 Bool_439) (p_604 R_656) (q_374 R_656))
	(=> (and (eps_99 x_126007 p_604) (eps_99 x_126008 q_374) (or_460 x_126006 x_126007 x_126008)) (eps_99 x_126006 (x_125972 p_604 q_374)))))
(assert (eps_99 true_439 Eps_98))
(assert (forall ((x_125979 R_656) (x_125991 T_39))
	(eps_99 false_439 (Atom_49 x_125991))))
(assert (forall ((x_125979 R_656))
	(eps_99 false_439 Nil_458)))
(declare-fun step_49 (R_656 R_656 T_39) Bool)
(assert (forall ((x_126013 R_656) (p_605 R_656) (y_3195 T_39))
	(=> (step_49 x_126013 p_605 y_3195) (step_49 (x_125973 x_126013 (Star_49 p_605)) (Star_49 p_605) y_3195))))
(assert (forall ((x_126016 R_656) (x_126017 R_656) (r_658 R_656) (q_375 R_656) (y_3195 T_39))
	(=> (and (step_49 x_126016 r_658 y_3195) (step_49 x_126017 q_375 y_3195) (eps_99 true_439 r_658)) (step_49 (x_125972 (x_125973 x_126016 q_375) x_126017) (x_125973 r_658 q_375) y_3195))))
(assert (forall ((x_126020 R_656) (r_658 R_656) (q_375 R_656) (y_3195 T_39))
	(=> (and (step_49 x_126020 r_658 y_3195) (eps_99 false_439 r_658)) (step_49 (x_125972 (x_125973 x_126020 q_375) Nil_458) (x_125973 r_658 q_375) y_3195))))
(assert (forall ((x_126022 R_656) (x_126023 R_656) (p_606 R_656) (q_376 R_656) (y_3195 T_39))
	(=> (and (step_49 x_126022 p_606 y_3195) (step_49 x_126023 q_376 y_3195)) (step_49 (x_125972 x_126022 x_126023) (x_125972 p_606 q_376) y_3195))))
(assert (forall ((b_139 T_39))
	(step_49 Eps_98 (Atom_49 b_139) b_139)))
(assert (forall ((b_139 T_39) (y_3195 T_39))
	(=> (diseqT_35 b_139 y_3195) (step_49 Nil_458 (Atom_49 b_139) y_3195))))
(assert (forall ((x_125981 R_656) (y_3195 T_39))
	(step_49 Nil_458 Eps_98 y_3195)))
(assert (forall ((x_125981 R_656) (y_3195 T_39))
	(step_49 Nil_458 Nil_458 y_3195)))
(declare-fun rec_35 (Bool_439 R_656 list_397) Bool)
(assert (forall ((x_126028 Bool_439) (x_126029 R_656) (z_2731 T_39) (xs_892 list_397) (x_125982 R_656))
	(=> (and (step_49 x_126029 x_125982 z_2731) (rec_35 x_126028 x_126029 xs_892)) (rec_35 x_126028 x_125982 (cons_391 z_2731 xs_892)))))
(assert (forall ((x_126031 Bool_439) (x_125982 R_656))
	(=> (eps_99 x_126031 x_125982) (rec_35 x_126031 x_125982 nil_456))))
(declare-fun reck_14 (Bool_439 R_656 list_397) Bool)
(declare-fun reck_15 (list_396 R_656 R_656 list_398) Bool)
(assert (forall ((x_126034 Bool_439) (x_125984 T_39) (x_125985 list_397) (p_607 R_656))
	(=> (and (rec_35 x_126034 (x_125973 p_607 (Star_49 p_607)) (cons_391 x_125984 x_125985)) (eps_99 false_439 p_607)) (reck_14 x_126034 (Star_49 p_607) (cons_391 x_125984 x_125985)))))
(assert (forall ((x_125984 T_39) (x_125985 list_397) (p_607 R_656))
	(=> (eps_99 true_439 p_607) (reck_14 false_439 (Star_49 p_607) (cons_391 x_125984 x_125985)))))
(assert (forall ((p_607 R_656))
	(reck_14 true_439 (Star_49 p_607) nil_456)))
(assert (forall ((x_126039 Bool_439) (x_126040 list_398) (x_126041 list_396) (r_659 R_656) (q_377 R_656) (y_3197 list_397))
	(=> (and (splits_15 x_126040 y_3197) (reck_15 x_126041 r_659 q_377 x_126040) (or_459 x_126039 x_126041)) (reck_14 x_126039 (x_125973 r_659 q_377) y_3197))))
(assert (forall ((x_126043 Bool_439) (x_126044 Bool_439) (x_126045 Bool_439) (p_608 R_656) (q_378 R_656) (y_3197 list_397))
	(=> (and (reck_14 x_126044 p_608 y_3197) (reck_14 x_126045 q_378 y_3197) (or_460 x_126043 x_126044 x_126045)) (reck_14 x_126043 (x_125972 p_608 q_378) y_3197))))
(assert (forall ((x_125987 T_39) (x_125988 list_397) (b_140 T_39) (c_78 T_39))
	(reck_14 false_439 (Atom_49 c_78) (cons_391 b_140 (cons_391 x_125987 x_125988)))))
(assert (forall ((b_140 T_39))
	(reck_14 true_439 (Atom_49 b_140) (cons_391 b_140 nil_456))))
(assert (forall ((b_140 T_39) (c_78 T_39))
	(=> (diseqT_35 c_78 b_140) (reck_14 false_439 (Atom_49 c_78) (cons_391 b_140 nil_456)))))
(assert (forall ((c_78 T_39))
	(reck_14 false_439 (Atom_49 c_78) nil_456)))
(assert (forall ((z_2732 T_39) (x_125989 list_397))
	(reck_14 false_439 Eps_98 (cons_391 z_2732 x_125989))))
(assert (reck_14 true_439 Eps_98 nil_456))
(assert (forall ((y_3197 list_397))
	(reck_14 false_439 Nil_458 y_3197)))
(assert (forall ((x_126063 Bool_439) (x_126054 Bool_439) (x_126055 Bool_439) (x_126056 list_396) (l_62 list_397) (r_660 list_397) (z_2733 list_398) (p_609 R_656) (q_379 R_656))
	(=> (and (reck_14 x_126054 p_609 l_62) (rec_35 x_126055 q_379 r_660) (reck_15 x_126056 p_609 q_379 z_2733) (and_445 x_126063 x_126054 x_126055)) (reck_15 (cons_390 x_126063 x_126056) p_609 q_379 (cons_392 (pair_205 l_62 r_660) z_2733)))))
(assert (forall ((p_609 R_656) (q_379 R_656))
	(reck_15 nil_455 p_609 q_379 nil_457)))
(assert (forall ((p_610 R_656))
	(=> (and true (reck_14 true_439 p_610 (cons_391 A_122 (cons_391 B_138 (cons_391 A_122 (cons_391 B_138 (cons_391 A_122 nil_456))))))) false)))
(check-sat)
